#pLT is two-dimensional [i,r]=[component, individual]
#[i,*] means all data in row i.

param pLT := 
[1,*]
1  0    2  5    3  7    4  8    5  8    6  6    

[2,*]
1  2    2  5    3  6    4  6    5  4    6  4    
;